LAMMPS data file via write_data, version 29 Aug 2024, timestep = 1, units = metal

500 atoms
1 atom types

0 21.338844478294998 xlo xhi
0 21.338844478294998 ylo yhi
0 21.338844478294998 zlo zhi

Masses

1 26.9815

Atoms # atomic

1 1 4.088142684164068e-10 4.0881439491641686e-10 4.088144205039189e-10 0 0 0
2 1 2.1338844500566703 2.1338844500566703 4.088217972999866e-10 0 0 0
3 1 2.133884450056608 4.0882197054201757e-10 2.1338844500566183 0 0 0
4 1 4.0883630701815437e-10 2.13388445005668 2.1338844500566188 0 0 0
5 1 4.267768896810066 4.0882442588093293e-10 4.088311034557436e-10 0 0 0
6 1 4.2677688968101215 2.133884450056642 2.133884450056691 0 0 0
15 1 6.401653343225856 2.1338844500567222 4.0879937821522616e-10 0 0 0
16 1 6.401653343225862 4.0882032201688685e-10 2.133884450056614 0 0 0
17 1 8.53553778981172 4.0880759381587756e-10 4.0878732966427075e-10 0 0 0
18 1 8.535537789811702 2.133884450056642 2.1338844500566383 0 0 0
24 1 10.669422240188307 2.1338844500566783 4.0884559269389067e-10 0 0 0
25 1 10.669422240188299 4.088187994167661e-10 2.133884450056642 0 0 0
26 1 12.803306686774143 4.0879548891491775e-10 4.0883635014315775e-10 0 0 0
27 1 14.937191133189897 2.1338844500567116 4.0882751257495213e-10 0 0 0
28 1 14.937191133190018 4.0877016041952555e-10 2.1338844500566125 0 0 0
29 1 12.80330668677423 2.133884450056642 2.133884450056627 0 0 0
37 1 17.071075579943358 4.088187706667638e-10 4.088122438412463e-10 0 0 0
40 1 17.071075579943354 2.1338844500566543 2.1338844500566316 0 0 0
38 1 19.204960029591177 2.1338844500567187 4.088189278214638e-10 0 0 0
39 1 19.20496002959118 4.088235851421456e-10 2.133884450056604 0 0 0
7 1 4.0883066741770716e-10 4.2677688968099 4.088307462796227e-10 0 0 0
8 1 2.1338844500566476 4.267768896809917 2.133884450056691 0 0 0
46 1 2.1338844500566654 6.401653343225989 4.0879938626522675e-10 0 0 0
47 1 4.088274060174486e-10 6.4016533432260125 2.1338844500566134 0 0 0
49 1 4.0878366691398034e-10 8.535537789811697 4.0878729286426783e-10 0 0 0
50 1 2.133884450056634 8.535537789811704 2.1338844500566383 0 0 0
9 1 4.267768896809943 4.267768896809943 4.088468990451417e-10 0 0 0
19 1 6.401653343225881 4.267768896810082 2.1338844500566863 0 0 0
20 1 8.535537789811722 4.267768896809934 4.0880354030757277e-10 0 0 0
48 1 4.267768896809963 6.401653343226 2.1338844500566863 0 0 0
51 1 4.267768896810077 8.535537789811695 4.088034805030758e-10 0 0 0
55 1 6.401653343225861 6.401653343225861 4.087768037134361e-10 0 0 0
56 1 8.535537789811782 6.401653343225943 2.133884450056633 0 0 0
57 1 6.4016533432258855 8.535537789811649 2.133884450056633 0 0 0
58 1 8.535537789811698 8.535537789811698 4.0876018391211826e-10 0 0 0
30 1 10.669422240188332 4.26776889680994 2.1338844500567142 0 0 0
61 1 10.6694222401883 6.401653343225979 4.088234960171385e-10 0 0 0
64 1 10.669422240188297 8.535537789811727 2.133884450056661 0 0 0
31 1 12.803306686774048 4.267768896809954 4.0885190704622237e-10 0 0 0
32 1 14.937191133189986 4.267768896810073 2.133884450056685 0 0 0
41 1 17.071075579943333 4.267768896809953 4.088282439991556e-10 0 0 0
62 1 14.937191133189934 6.401653343225861 4.08805267638032e-10 0 0 0
63 1 12.803306686774105 6.401653343225985 2.1338844500566223 0 0 0
65 1 12.803306686774176 8.53553778981169 4.0880915551600144e-10 0 0 0
66 1 14.937191133189973 8.535537789811645 2.1338844500566316 0 0 0
71 1 17.071075579943464 6.401653343225983 2.133884450056626 0 0 0
72 1 17.07107557994334 8.5355377898117 4.087852533391061e-10 0 0 0
42 1 19.204960029591152 4.267768896809933 2.1338844500566765 0 0 0
70 1 19.204960029591238 6.401653343225908 4.0879639281498943e-10 0 0 0
73 1 19.204960029591167 8.535537789811693 2.133884450056623 0 0 0
76 1 2.13388445005667 10.669422240188299 4.0884578704390604e-10 0 0 0
77 1 4.0885709441980265e-10 10.669422240188329 2.133884450056642 0 0 0
78 1 4.2677688968100975 10.669422240188299 2.1338844500567142 0 0 0
89 1 6.401653343225856 10.669422240188348 4.088235627171438e-10 0 0 0
90 1 8.535537789811736 10.669422240188288 2.133884450056661 0 0 0
98 1 10.669422240188277 10.669422240188277 4.0887040912085846e-10 0 0 0
99 1 14.93719113318986 10.6694222401883 4.088523163592187e-10 0 0 0
100 1 12.80330668677421 10.669422240188304 2.1338844500566503 0 0 0
113 1 17.07107557994337 10.669422240188318 2.1338844500566543 0 0 0
112 1 19.204960029591177 10.669422240188336 4.088430661436903e-10 0 0 0
79 1 4.08836428918164e-10 12.803306686774015 4.0883596374312716e-10 0 0 0
80 1 2.133884450056662 14.937191133190076 4.0882772539347485e-10 0 0 0
81 1 2.133884450056642 12.803306686774155 2.133884450056627 0 0 0
82 1 4.0882758081746243e-10 14.937191133190074 2.1338844500566125 0 0 0
121 1 4.0881846821673984e-10 17.071075579943315 4.088124894022033e-10 0 0 0
123 1 2.1338844500566303 17.07107557994338 2.1338844500566316 0 0 0
83 1 4.267768896809929 12.803306686774024 4.088518449406022e-10 0 0 0
84 1 4.267768896809982 14.937191133190074 2.133884450056685 0 0 0
91 1 6.401653343225832 14.937191133189904 4.0880549305938775e-10 0 0 0
92 1 6.401653343225881 12.80330668677421 2.1338844500566223 0 0 0
93 1 8.535537789811784 12.803306686774082 4.0880939931602076e-10 0 0 0
94 1 8.535537789811707 14.93719113318996 2.1338844500566316 0 0 0
125 1 4.2677688968101 17.071075579943308 4.08828228453378e-10 0 0 0
131 1 6.401653343225939 17.071075579943326 2.1338844500566263 0 0 0
132 1 8.535537789811695 17.071075579943333 4.087850676140914e-10 0 0 0
101 1 10.669422240188254 14.937191133190023 4.0885241527831835e-10 0 0 0
102 1 10.669422240188345 12.803306686774198 2.13388445005665 0 0 0
137 1 10.669422240188318 17.07107557994337 2.1338844500566543 0 0 0
103 1 12.803306686774125 12.803306686774125 4.088577959198583e-10 0 0 0
104 1 14.937191133189932 14.937191133189934 4.0883412708909964e-10 0 0 0
105 1 14.937191133190009 12.803306686774176 2.1338844500566214 0 0 0
106 1 12.803306686774139 14.937191133190046 2.133884450056621 0 0 0
114 1 17.071075579943372 12.80330668677403 4.088339955179711e-10 0 0 0
117 1 17.07107557994341 14.93719113319011 2.1338844500566254 0 0 0
138 1 12.803306686774171 17.071075579943315 4.0883421746798867e-10 0 0 0
140 1 14.937191133189964 17.071075579943326 2.133884450056625 0 0 0
145 1 17.07107557994332 17.07107557994332 4.0881039218189296e-10 0 0 0
115 1 19.20496002959117 14.937191133190025 4.088252459016439e-10 0 0 0
116 1 19.204960029591156 12.803306686774082 2.133884450056613 0 0 0
147 1 19.204960029591174 17.071075579943336 2.133884450056617 0 0 0
122 1 2.133884450056648 19.204960029591174 4.0881881124020457e-10 0 0 0
124 1 4.08823691517154e-10 19.20496002959118 2.1338844500566037 0 0 0
126 1 4.267768896810104 19.20496002959118 2.1338844500566765 0 0 0
130 1 6.401653343225804 19.20496002959119 4.087961777649724e-10 0 0 0
133 1 8.53553778981172 19.20496002959119 2.133884450056623 0 0 0
136 1 10.669422240188283 19.20496002959118 4.08843075343691e-10 0 0 0
139 1 14.937191133189929 19.20496002959121 4.088249744033925e-10 0 0 0
141 1 12.80330668677417 19.204960029591245 2.133884450056613 0 0 0
148 1 17.071075579943404 19.204960029591174 2.133884450056617 0 0 0
146 1 19.204960029591184 19.204960029591184 4.088166392853448e-10 0 0 0
10 1 4.08824422917212e-10 4.0882453504222093e-10 4.267768896810232 0 0 0
11 1 2.133884450056628 2.133884450056628 4.267768896810256 0 0 0
151 1 2.13388445005666 4.088062350907698e-10 6.401653343225724 0 0 0
152 1 4.0882042551689505e-10 2.133884450056732 6.401653343225724 0 0 0
155 1 4.088045371156352e-10 4.088046532656444e-10 8.535537789811734 0 0 0
156 1 2.1338844500566387 2.1338844500566387 8.53553778981169 0 0 0
12 1 4.267768896810109 4.088343412597709e-10 4.267768896810109 0 0 0
21 1 6.401653343225867 2.13388445005668 4.267768896810111 0 0 0
22 1 8.535537789811666 4.0881785181669095e-10 4.267768896810194 0 0 0
153 1 4.267768896810243 2.1338844500566934 6.401653343225748 0 0 0
157 1 4.267768896810147 4.0881482110656296e-10 8.535537789811787 0 0 0
160 1 6.4016533432257345 4.088047073156487e-10 6.401653343225729 0 0 0
161 1 8.53553778981165 2.133884450056694 6.401653343225757 0 0 0
163 1 6.401653343225781 2.1338844500566903 8.535537789811746 0 0 0
164 1 8.53553778981172 4.087984283151508e-10 8.535537789811716 0 0 0
33 1 10.669422240188293 2.133884450056636 4.267768896810256 0 0 0
166 1 10.669422240188325 4.088032077155298e-10 6.401653343225724 0 0 0
171 1 10.669422240188274 2.1338844500566467 8.535537789811727 0 0 0
34 1 12.803306686774151 4.088052248156897e-10 4.267768896810094 0 0 0
35 1 14.937191133189893 2.1338844500566694 4.2677688968101295 0 0 0
43 1 17.071075579943358 4.0882914251758625e-10 4.267768896810262 0 0 0
167 1 14.937191133189847 4.0875453194130876e-10 6.401653343225705 0 0 0
168 1 12.8033066867743 2.1338844500566934 6.401653343225748 0 0 0
172 1 12.8033066867742 4.0878607961417164e-10 8.535537789811793 0 0 0
173 1 14.937191133189778 2.1338844500566796 8.535537789811698 0 0 0
176 1 17.0710755799433 2.133884450056706 6.401653343225806 0 0 0
178 1 17.071075579943386 4.088091894410041e-10 8.535537789811713 0 0 0
44 1 19.204960029591174 2.133884450056676 4.2677688968102485 0 0 0
175 1 19.20496002959119 4.0880772951588834e-10 6.4016533432256715 0 0 0
179 1 19.204960029591188 2.1338844500566867 8.535537789811713 0 0 0
13 1 4.088407276185049e-10 4.267768896809943 4.267768896810109 0 0 0
52 1 2.133884450056623 6.401653343226 4.267768896810111 0 0 0
53 1 4.0879415491481197e-10 8.535537789811643 4.267768896810194 0 0 0
154 1 2.1338844500566996 4.267768896810039 6.401653343225748 0 0 0
158 1 4.0882112931695086e-10 4.267768896809981 8.535537789811787 0 0 0
181 1 4.088112830161701e-10 6.401653343225885 6.401653343225729 0 0 0
183 1 2.1338844500566854 8.535537789811652 6.401653343225757 0 0 0
184 1 2.133884450056634 6.401653343225914 8.535537789811746 0 0 0
185 1 4.087741863132286e-10 8.535537789811697 8.535537789811716 0 0 0
14 1 4.267768896809986 4.267768896809986 4.267768896809986 0 0 0
23 1 8.535537789811668 4.267768896809977 4.267768896810072 0 0 0
54 1 4.26776889681012 8.535537789811642 4.267768896810072 0 0 0
59 1 6.401653343225871 6.401653343225871 4.267768896809966 0 0 0
60 1 8.535537789811645 8.535537789811645 4.267768896810157 0 0 0
159 1 4.267768896810024 4.267768896810024 8.535537789811839 0 0 0
162 1 6.401653343225753 4.267768896810204 6.401653343225753 0 0 0
165 1 8.53553778981172 4.267768896810015 8.535537789811768 0 0 0
182 1 4.267768896810086 6.401653343225871 6.401653343225752 0 0 0
186 1 4.267768896810157 8.535537789811693 8.53553778981177 0 0 0
187 1 8.53553778981173 6.4016533432258145 6.401653343225761 0 0 0
188 1 6.401653343225757 8.535537789811597 6.401653343225761 0 0 0
189 1 6.401653343225785 6.401653343225785 8.535537789811801 0 0 0
190 1 8.535537789811698 8.535537789811698 8.535537789811697 0 0 0
67 1 10.669422240188288 6.4016533432259894 4.26776889681011 0 0 0
169 1 10.669422240188359 4.267768896810063 6.401653343225748 0 0 0
192 1 10.669422240188325 8.535537789811674 6.401653343225757 0 0 0
194 1 10.669422240188267 6.401653343225903 8.535537789811784 0 0 0
36 1 12.803306686774057 4.267768896809996 4.267768896809971 0 0 0
45 1 17.071075579943333 4.267768896809995 4.267768896810138 0 0 0
68 1 14.937191133189929 6.401653343225871 4.267768896809985 0 0 0
69 1 12.803306686774185 8.535537789811636 4.267768896810057 0 0 0
75 1 17.071075579943336 8.535537789811647 4.2677688968102245 0 0 0
170 1 14.937191133189815 4.267768896810194 6.401653343225729 0 0 0
174 1 12.803306686774105 4.2677688968100345 8.535537789811844 0 0 0
180 1 17.07107557994336 4.267768896810033 8.535537789811764 0 0 0
191 1 12.803306686774176 6.401653343225857 6.401653343225753 0 0 0
193 1 14.937191133189804 8.535537789811594 6.401653343225738 0 0 0
195 1 14.937191133189813 6.401653343225785 8.535537789811753 0 0 0
196 1 12.803306686774233 8.535537789811688 8.535537789811773 0 0 0
197 1 17.071075579943415 6.401653343225854 6.40165334322581 0 0 0
200 1 17.071075579943365 8.535537789811698 8.535537789811693 0 0 0
74 1 19.204960029591234 6.401653343225919 4.267768896810104 0 0 0
177 1 19.204960029591163 4.267768896810056 6.4016533432256955 0 0 0
198 1 19.204960029591177 8.53553778981164 6.401653343225705 0 0 0
199 1 19.20496002959125 6.401653343225833 8.535537789811768 0 0 0
85 1 2.1338844500566276 10.669422240188284 4.267768896810256 0 0 0
201 1 4.088415050185665e-10 10.669422240188355 6.401653343225725 0 0 0
206 1 2.133884450056638 10.669422240188265 8.535537789811727 0 0 0
95 1 6.401653343225867 10.669422240188334 4.26776889681011 0 0 0
202 1 4.267768896810219 10.669422240188325 6.401653343225748 0 0 0
210 1 8.535537789811684 10.669422240188315 6.401653343225757 0 0 0
213 1 6.401653343225781 10.669422240188315 8.535537789811784 0 0 0
107 1 10.669422240188263 10.669422240188263 4.267768896810255 0 0 0
220 1 10.669422240188243 10.669422240188243 8.535537789811764 0 0 0
108 1 14.937191133189856 10.669422240188288 4.2677688968101295 0 0 0
216 1 12.803306686774281 10.669422240188329 6.401653343225748 0 0 0
221 1 14.937191133189742 10.669422240188267 8.535537789811736 0 0 0
225 1 17.07107557994332 10.669422240188345 6.401653343225806 0 0 0
118 1 19.204960029591174 10.669422240188322 4.2677688968102485 0 0 0
228 1 19.204960029591188 10.669422240188302 8.53553778981175 0 0 0
86 1 4.088459440189185e-10 12.803306686774024 4.267768896810095 0 0 0
87 1 2.1338844500566196 14.937191133190073 4.2677688968101295 0 0 0
127 1 4.0882867331754903e-10 17.07107557994331 4.267768896810262 0 0 0
203 1 2.1338844500566934 12.803306686774224 6.401653343225748 0 0 0
204 1 4.08811319816173e-10 14.937191133189904 6.401653343225706 0 0 0
207 1 4.088267022173928e-10 12.803306686774071 8.535537789811793 0 0 0
208 1 2.1338844500566294 14.937191133189957 8.535537789811698 0 0 0
231 1 2.1338844500566823 17.071075579943326 6.401653343225806 0 0 0
234 1 4.088088059159737e-10 17.07107557994334 8.535537789811713 0 0 0
88 1 4.267768896809971 12.803306686774032 4.267768896809971 0 0 0
96 1 6.401653343225843 14.9371911331899 4.267768896809985 0 0 0
97 1 8.53553778981173 12.803306686774091 4.267768896810057 0 0 0
129 1 4.267768896810143 17.071075579943308 4.267768896810138 0 0 0
135 1 8.535537789811642 17.071075579943333 4.2677688968102245 0 0 0
205 1 4.267768896810105 14.937191133189906 6.401653343225729 0 0 0
209 1 4.26776889681001 12.80330668677408 8.535537789811844 0 0 0
211 1 6.401653343225753 12.803306686774281 6.401653343225753 0 0 0
212 1 8.535537789811654 14.93719113318979 6.401653343225738 0 0 0
214 1 6.401653343225757 14.937191133189785 8.535537789811753 0 0 0
215 1 8.535537789811784 12.803306686774139 8.535537789811773 0 0 0
236 1 4.267768896810181 17.071075579943336 8.535537789811764 0 0 0
237 1 6.40165334322581 17.071075579943276 6.40165334322581 0 0 0
240 1 8.535537789811693 17.07107557994336 8.535537789811693 0 0 0
109 1 10.66942224018824 14.93719113319002 4.267768896810129 0 0 0
217 1 10.669422240188371 12.803306686774267 6.401653343225748 0 0 0
222 1 10.66942224018822 14.937191133189904 8.535537789811736 0 0 0
241 1 10.669422240188345 17.07107557994332 6.401653343225806 0 0 0
110 1 12.803306686774134 12.803306686774132 4.267768896809956 0 0 0
111 1 14.937191133189929 14.937191133189929 4.267768896810003 0 0 0
119 1 17.07107557994337 12.80330668677404 4.267768896810124 0 0 0
143 1 12.803306686774178 17.07107557994331 4.267768896810123 0 0 0
149 1 17.071075579943315 17.071075579943315 4.267768896810291 0 0 0
218 1 14.937191133189838 12.803306686774247 6.401653343225729 0 0 0
219 1 12.80330668677421 14.937191133189875 6.401653343225729 0 0 0
223 1 12.80330668677418 12.80330668677418 8.535537789811848 0 0 0
224 1 14.937191133189815 14.937191133189815 8.535537789811706 0 0 0
227 1 17.07107557994336 14.93719113318994 6.401653343225786 0 0 0
229 1 17.0710755799434 12.803306686774087 8.53553778981177 0 0 0
242 1 14.937191133189796 17.071075579943276 6.401653343225787 0 0 0
245 1 12.803306686774226 17.07107557994334 8.53553778981177 0 0 0
249 1 17.071075579943344 17.071075579943344 8.53553778981169 0 0 0
120 1 19.204960029591167 14.93719113319002 4.267768896810123 0 0 0
226 1 19.204960029591167 12.803306686774151 6.4016533432256955 0 0 0
230 1 19.20496002959118 14.937191133189906 8.53553778981172 0 0 0
247 1 19.204960029591184 17.071075579943283 6.401653343225753 0 0 0
128 1 2.133884450056606 19.20496002959117 4.2677688968102485 0 0 0
232 1 4.088077479158898e-10 19.20496002959119 6.401653343225672 0 0 0
235 1 2.1338844500566165 19.204960029591184 8.535537789811713 0 0 0
134 1 6.4016533432258145 19.204960029591188 4.267768896810104 0 0 0
233 1 4.267768896810227 19.204960029591188 6.4016533432256955 0 0 0
238 1 8.535537789811668 19.204960029591202 6.401653343225704 0 0 0
239 1 6.401653343225728 19.204960029591202 8.535537789811768 0 0 0
142 1 10.669422240188268 19.204960029591177 4.267768896810248 0 0 0
244 1 10.669422240188249 19.20496002959119 8.53553778981175 0 0 0
144 1 14.937191133189923 19.204960029591206 4.267768896810123 0 0 0
243 1 12.80330668677424 19.204960029591252 6.4016533432256955 0 0 0
246 1 14.93719113318981 19.20496002959122 8.53553778981172 0 0 0
248 1 17.07107557994335 19.204960029591184 6.401653343225753 0 0 0
150 1 19.204960029591177 19.204960029591177 4.267768896810242 0 0 0
250 1 19.20496002959119 19.20496002959119 8.535537789811734 0 0 0
251 1 2.1338844500566125 4.0881608714155104e-10 10.669422240188286 0 0 0
252 1 4.0883064441770533e-10 2.133884450056684 10.669422240188286 0 0 0
253 1 4.267768896810145 2.133884450056646 10.669422240188355 0 0 0
264 1 6.401653343225852 4.088146801164395e-10 10.669422240188284 0 0 0
265 1 8.535537789811722 2.133884450056646 10.669422240188279 0 0 0
273 1 10.669422240188254 4.0881326101632694e-10 10.669422240188261 0 0 0
274 1 14.93719113318996 4.0876444485168956e-10 10.669422240188236 0 0 0
275 1 12.803306686774288 2.1338844500566463 10.669422240188327 0 0 0
288 1 17.071075579943347 2.1338844500566583 10.6694222401883 0 0 0
287 1 19.20496002959121 4.088177753416849e-10 10.669422240188295 0 0 0
254 1 2.133884450056652 4.26776889680994 10.669422240188355 0 0 0
296 1 4.0882193201701453e-10 6.401653343226003 10.669422240188284 0 0 0
298 1 2.133884450056638 8.535537789811723 10.669422240188279 0 0 0
266 1 6.40165334322587 4.2677688968101055 10.669422240188354 0 0 0
297 1 4.2677688968099865 6.401653343225989 10.669422240188354 0 0 0
305 1 8.535537789811801 6.401653343225932 10.669422240188277 0 0 0
306 1 6.401653343225875 8.53553778981167 10.669422240188277 0 0 0
276 1 10.669422240188288 4.267768896809964 10.66942224018833 0 0 0
312 1 10.669422240188254 8.535537789811746 10.669422240188254 0 0 0
277 1 14.937191133189929 4.267768896810095 10.669422240188306 0 0 0
311 1 12.803306686774164 6.401653343225974 10.669422240188325 0 0 0
313 1 14.937191133189918 8.535537789811665 10.66942224018823 0 0 0
320 1 17.071075579943457 6.401653343225973 10.669422240188299 0 0 0
289 1 19.20496002959118 4.267768896809957 10.669422240188364 0 0 0
321 1 19.204960029591195 8.535537789811713 10.66942224018829 0 0 0
326 1 4.0885122251933706e-10 10.669422240188284 10.66942224018826 0 0 0
327 1 4.267768896810121 10.669422240188254 10.66942224018833 0 0 0
340 1 8.535537789811755 10.669422240188243 10.669422240188254 0 0 0
349 1 12.803306686774269 10.669422240188258 10.669422240188302 0 0 0
362 1 17.07107557994336 10.669422240188274 10.669422240188275 0 0 0
328 1 2.133884450056646 12.803306686774212 10.669422240188327 0 0 0
329 1 4.088218515170081e-10 14.937191133190018 10.669422240188236 0 0 0
371 1 2.1338844500566347 17.07107557994337 10.6694222401883 0 0 0
330 1 4.267768896810005 14.93719113319002 10.669422240188307 0 0 0
341 1 6.40165334322587 12.803306686774267 10.669422240188325 0 0 0
342 1 8.535537789811727 14.937191133189904 10.66942224018823 0 0 0
380 1 6.401653343225928 17.07107557994332 10.669422240188299 0 0 0
350 1 10.6694222401883 12.803306686774254 10.669422240188302 0 0 0
386 1 10.669422240188274 17.07107557994336 10.669422240188274 0 0 0
351 1 14.937191133189954 12.803306686774233 10.669422240188277 0 0 0
352 1 12.803306686774198 14.93719113318999 10.669422240188277 0 0 0
364 1 17.071075579943404 14.937191133190053 10.66942224018825 0 0 0
387 1 14.93719113318991 17.07107557994332 10.66942224018825 0 0 0
363 1 19.204960029591184 12.803306686774139 10.669422240188336 0 0 0
395 1 19.204960029591202 17.07107557994333 10.66942224018831 0 0 0
372 1 4.0881778511668566e-10 19.20496002959121 10.669422240188295 0 0 0
373 1 4.267768896810128 19.20496002959121 10.669422240188364 0 0 0
381 1 8.53553778981174 19.20496002959122 10.66942224018829 0 0 0
388 1 12.803306686774228 19.204960029591273 10.669422240188336 0 0 0
396 1 17.071075579943393 19.204960029591202 10.66942224018831 0 0 0
255 1 4.0875591741177995e-10 4.087559628367836e-10 12.803306686774192 0 0 0
256 1 2.1338844500566228 2.1338844500566223 12.803306686774281 0 0 0
257 1 2.1338844500566463 4.087674386876935e-10 14.937191133189838 0 0 0
258 1 4.087818821138388e-10 2.1338844500567182 14.937191133189838 0 0 0
401 1 4.0882556601730266e-10 4.0882555969230215e-10 17.07107557994342 0 0 0
402 1 2.1338844500566543 2.1338844500566547 17.07107557994333 0 0 0
259 1 4.267768896810119 4.087658863307589e-10 12.803306686774137 0 0 0
260 1 4.267768896810233 2.13388445005668 14.9371911331898 0 0 0
267 1 6.401653343225852 2.1338844500566743 12.803306686774176 0 0 0
268 1 6.401653343225706 4.087661041125877e-10 14.937191133189849 0 0 0
269 1 8.53553778981172 4.0874964991128297e-10 12.803306686774276 0 0 0
270 1 8.53553778981164 2.1338844500566805 14.937191133189788 0 0 0
405 1 4.2677688968101695 4.08835668224549e-10 17.071075579943443 0 0 0
410 1 6.40165334322585 2.1338844500567067 17.07107557994344 0 0 0
412 1 8.53553778981172 4.0881899951678195e-10 17.071075579943397 0 0 0
278 1 10.669422240188288 2.1338844500566303 12.803306686774281 0 0 0
279 1 10.669422240188277 4.0876470111247644e-10 14.937191133189804 0 0 0
416 1 10.669422240188302 2.1338844500566627 17.071075579943344 0 0 0
280 1 12.803306686774253 4.087369677102774e-10 12.803306686774212 0 0 0
281 1 14.937191133189863 2.1338844500566636 12.80330668677421 0 0 0
282 1 14.937191133189895 4.0871569185226707e-10 14.9371911331899 0 0 0
283 1 12.803306686774267 2.1338844500566796 14.937191133189824 0 0 0
290 1 17.071075579943315 4.0876061343715234e-10 12.803306686774208 0 0 0
293 1 17.0710755799433 2.1338844500566925 14.93719113318978 0 0 0
418 1 12.803306686774162 4.0880684401581814e-10 17.071075579943436 0 0 0
419 1 14.937191133189927 2.1338844500566956 17.071075579943386 0 0 0
425 1 17.07107557994337 4.088301648676673e-10 17.071075579943376 0 0 0
291 1 19.204960029591234 2.1338844500566703 12.803306686774237 0 0 0
292 1 19.20496002959123 4.0876928098783964e-10 14.937191133189891 0 0 0
426 1 19.204960029591163 2.1338844500567027 17.071075579943372 0 0 0
261 1 4.087724452130905e-10 4.267768896809954 12.803306686774137 0 0 0
262 1 2.133884450056686 4.267768896810029 14.9371911331898 0 0 0
299 1 2.1338844500566174 6.401653343225985 12.803306686774176 0 0 0
300 1 4.0877318121314885e-10 6.401653343225856 14.937191133189849 0 0 0
302 1 4.0872581040939267e-10 8.535537789811697 12.803306686774276 0 0 0
303 1 2.1338844500566716 8.535537789811642 14.937191133189788 0 0 0
407 1 4.088421743186196e-10 4.267768896810003 17.071075579943443 0 0 0
431 1 2.1338844500566494 6.401653343225983 17.07107557994344 0 0 0
434 1 4.0879555331492284e-10 8.535537789811697 17.071075579943397 0 0 0
263 1 4.267768896809996 4.267768896809996 12.803306686774082 0 0 0
271 1 6.401653343225724 4.267768896810194 14.93719113318981 0 0 0
272 1 8.535537789811722 4.2677688968099865 12.80330668677422 0 0 0
301 1 4.267768896810075 6.401653343225843 14.93719113318981 0 0 0
304 1 4.267768896810129 8.535537789811693 12.80330668677422 0 0 0
307 1 6.401653343225856 6.401653343225856 12.803306686774073 0 0 0
308 1 8.535537789811722 6.401653343225785 14.937191133189799 0 0 0
309 1 6.401653343225728 8.535537789811588 14.937191133189799 0 0 0
310 1 8.535537789811698 8.535537789811698 12.80330668677436 0 0 0
409 1 4.267768896810046 4.267768896810046 17.071075579943464 0 0 0
415 1 8.535537789811722 4.267768896810037 17.071075579943418 0 0 0
436 1 4.267768896810179 8.535537789811695 17.071075579943418 0 0 0
437 1 6.401653343225854 6.401653343225854 17.071075579943553 0 0 0
440 1 8.535537789811698 8.535537789811698 17.071075579943372 0 0 0
284 1 10.669422240188311 4.267768896810053 14.937191133189765 0 0 0
314 1 10.669422240188283 6.401653343225974 12.803306686774176 0 0 0
317 1 10.669422240188277 8.535537789811665 14.937191133189755 0 0 0
441 1 10.669422240188297 6.401653343225973 17.071075579943457 0 0 0
285 1 12.803306686774159 4.267768896810006 12.803306686774157 0 0 0
286 1 14.937191133189863 4.267768896810184 14.937191133189863 0 0 0
294 1 17.07107557994329 4.267768896810005 12.803306686774153 0 0 0
315 1 14.9371911331899 6.401653343225856 12.803306686774107 0 0 0
316 1 12.803306686774143 6.401653343225828 14.937191133189835 0 0 0
318 1 12.803306686774285 8.53553778981169 12.803306686774295 0 0 0
319 1 14.937191133189852 8.535537789811583 14.937191133189852 0 0 0
323 1 17.071075579943415 6.401653343225826 14.93719113318979 0 0 0
324 1 17.071075579943297 8.535537789811698 12.803306686774292 0 0 0
423 1 12.803306686774068 4.267768896810056 17.071075579943454 0 0 0
429 1 17.071075579943344 4.267768896810055 17.071075579943397 0 0 0
442 1 14.937191133189962 6.401653343225854 17.0710755799435 0 0 0
445 1 12.803306686774196 8.53553778981169 17.071075579943408 0 0 0
449 1 17.07107557994335 8.5355377898117 17.07107557994335 0 0 0
295 1 19.2049600295912 4.267768896810046 14.937191133189854 0 0 0
322 1 19.204960029591298 6.401653343225904 12.803306686774132 0 0 0
325 1 19.204960029591216 8.535537789811631 14.937191133189842 0 0 0
447 1 19.204960029591224 6.401653343225902 17.071075579943482 0 0 0
331 1 2.1338844500566214 10.669422240188279 12.803306686774281 0 0 0
332 1 4.0880322841553144e-10 10.669422240188307 14.937191133189804 0 0 0
451 1 2.133884450056654 10.669422240188293 17.071075579943344 0 0 0
333 1 4.267768896810209 10.669422240188277 14.937191133189767 0 0 0
343 1 6.401653343225852 10.66942224018833 12.803306686774176 0 0 0
344 1 8.535537789811674 10.669422240188267 14.937191133189755 0 0 0
460 1 6.40165334322585 10.669422240188345 17.071075579943457 0 0 0
353 1 10.669422240188258 10.669422240188258 12.803306686774281 0 0 0
466 1 10.669422240188274 10.669422240188274 17.07107557994336 0 0 0
354 1 14.937191133189827 10.669422240188283 12.80330668677421 0 0 0
355 1 12.803306686774247 10.669422240188283 14.93719113318979 0 0 0
366 1 17.07107557994332 10.669422240188297 14.937191133189746 0 0 0
467 1 14.93719113318989 10.669422240188297 17.071075579943404 0 0 0
365 1 19.204960029591238 10.669422240188318 12.803306686774237 0 0 0
475 1 19.204960029591163 10.669422240188332 17.07107557994339 0 0 0
334 1 4.0877758341349794e-10 12.803306686774123 12.803306686774212 0 0 0
335 1 2.133884450056613 14.937191133190042 12.80330668677421 0 0 0
336 1 2.13388445005668 12.80330668677419 14.937191133189824 0 0 0
337 1 4.087730892131416e-10 14.937191133189952 14.937191133189902 0 0 0
374 1 4.0876045761213996e-10 17.071075579943273 12.803306686774208 0 0 0
376 1 2.1338844500566685 17.071075579943326 14.93719113318978 0 0 0
454 1 4.088478737190715e-10 12.803306686774034 17.071075579943432 0 0 0
455 1 2.1338844500566454 14.937191133190106 17.071075579943386 0 0 0
481 1 4.088298946176459e-10 17.071075579943326 17.071075579943376 0 0 0
338 1 4.267768896809981 12.803306686774132 12.803306686774159 0 0 0
339 1 4.267768896810094 14.937191133189954 14.937191133189863 0 0 0
345 1 6.401653343225828 14.93719113318987 12.803306686774107 0 0 0
346 1 6.401653343225724 12.803306686774247 14.937191133189835 0 0 0
347 1 8.535537789811784 12.80330668677419 12.803306686774295 0 0 0
348 1 8.535537789811645 14.937191133189838 14.937191133189852 0 0 0
378 1 4.267768896810153 17.071075579943265 12.803306686774153 0 0 0
383 1 6.401653343225782 17.071075579943276 14.93719113318979 0 0 0
384 1 8.535537789811695 17.07107557994329 12.803306686774292 0 0 0
458 1 4.267768896810031 12.803306686774043 17.071075579943454 0 0 0
462 1 6.401653343225826 14.937191133189934 17.0710755799435 0 0 0
464 1 8.535537789811784 12.8033066867741 17.071075579943408 0 0 0
485 1 4.267768896810203 17.07107557994332 17.071075579943397 0 0 0
489 1 8.535537789811695 17.071075579943344 17.07107557994335 0 0 0
356 1 10.669422240188235 14.93719113318999 12.803306686774212 0 0 0
357 1 10.669422240188325 12.803306686774233 14.93719113318979 0 0 0
390 1 10.669422240188297 17.07107557994332 14.937191133189746 0 0 0
469 1 10.669422240188249 14.937191133190053 17.071075579943404 0 0 0
358 1 12.803306686774233 12.803306686774233 12.803306686774233 0 0 0
359 1 14.9371911331899 14.9371911331899 12.80330668677414 0 0 0
360 1 14.937191133189886 12.803306686774214 14.937191133189886 0 0 0
361 1 12.803306686774176 14.937191133189923 14.937191133189886 0 0 0
367 1 17.07107557994333 12.803306686774139 12.803306686774228 0 0 0
370 1 17.07107557994336 14.937191133189987 14.937191133189843 0 0 0
391 1 12.803306686774278 17.071075579943273 12.803306686774228 0 0 0
393 1 14.937191133189843 17.071075579943276 14.937191133189843 0 0 0
397 1 17.071075579943276 17.071075579943276 12.803306686774224 0 0 0
471 1 12.803306686774143 12.803306686774143 17.071075579943443 0 0 0
472 1 14.937191133189964 14.937191133189964 17.071075579943447 0 0 0
477 1 17.071075579943383 12.80330668677405 17.071075579943386 0 0 0
493 1 12.803306686774189 17.071075579943326 17.071075579943386 0 0 0
497 1 17.07107557994333 17.07107557994333 17.07107557994333 0 0 0
368 1 19.20496002959123 14.937191133189991 12.803306686774166 0 0 0
369 1 19.204960029591202 12.803306686774118 14.937191133189877 0 0 0
399 1 19.20496002959122 17.071075579943283 14.937191133189835 0 0 0
478 1 19.204960029591156 14.937191133190055 17.07107557994343 0 0 0
375 1 2.1338844500566005 19.204960029591234 12.803306686774237 0 0 0
377 1 4.0876933101284356e-10 19.20496002959123 14.937191133189891 0 0 0
482 1 2.133884450056632 19.20496002959116 17.071075579943372 0 0 0
379 1 4.2677688968102165 19.204960029591227 14.937191133189854 0 0 0
382 1 6.401653343225799 19.20496002959125 12.803306686774132 0 0 0
385 1 8.53553778981166 19.20496002959124 14.937191133189842 0 0 0
487 1 6.401653343225798 19.204960029591177 17.071075579943482 0 0 0
389 1 10.669422240188263 19.204960029591238 12.803306686774237 0 0 0
491 1 10.669422240188277 19.204960029591167 17.071075579943386 0 0 0
392 1 14.937191133189895 19.20496002959127 12.803306686774166 0 0 0
394 1 12.803306686774206 19.20496002959129 14.937191133189877 0 0 0
400 1 17.07107557994335 19.20496002959122 14.937191133189833 0 0 0
494 1 14.937191133189957 19.204960029591195 17.07107557994343 0 0 0
398 1 19.20496002959124 19.20496002959124 12.803306686774192 0 0 0
498 1 19.20496002959117 19.20496002959117 17.071075579943415 0 0 0
403 1 2.1338844500566245 4.0881415111639753e-10 19.204960029591145 0 0 0
404 1 4.0882882971756144e-10 2.133884450056697 19.204960029591145 0 0 0
406 1 4.2677688968100975 2.1338844500566587 19.20496002959112 0 0 0
411 1 6.401653343225782 4.0881270211628265e-10 19.204960029591238 0 0 0
413 1 8.535537789811688 2.1338844500566583 19.20496002959113 0 0 0
417 1 10.669422240188306 4.088115567161918e-10 19.20496002959117 0 0 0
420 1 14.93719113318996 4.087626737942737e-10 19.20496002959117 0 0 0
421 1 12.803306686774174 2.1338844500566587 19.204960029591124 0 0 0
428 1 17.07107557994331 2.1338844500566707 19.20496002959114 0 0 0
427 1 19.204960029591184 4.088163792415742e-10 19.204960029591184 0 0 0
408 1 2.1338844500566645 4.267768896809894 19.20496002959112 0 0 0
432 1 4.0882015411687355e-10 6.401653343225932 19.204960029591238 0 0 0
435 1 2.1338844500566503 8.53553778981169 19.20496002959113 0 0 0
414 1 6.4016533432258 4.267768896810059 19.204960029591213 0 0 0
433 1 4.26776889680994 6.401653343225919 19.204960029591213 0 0 0
438 1 8.53553778981177 6.4016533432258615 19.204960029591224 0 0 0
439 1 6.401653343225805 8.535537789811636 19.204960029591224 0 0 0
422 1 10.66942224018834 4.267768896809917 19.204960029591145 0 0 0
444 1 10.669422240188306 8.535537789811713 19.204960029591156 0 0 0
424 1 14.937191133189929 4.267768896810049 19.204960029591145 0 0 0
443 1 12.80330668677405 6.401653343225904 19.204960029591216 0 0 0
446 1 14.937191133189918 8.535537789811631 19.204960029591156 0 0 0
448 1 17.07107557994342 6.401653343225902 19.20496002959123 0 0 0
430 1 19.204960029591152 4.26776889680991 19.204960029591156 0 0 0
450 1 19.20496002959117 8.535537789811679 19.20496002959117 0 0 0
452 1 4.088499092192329e-10 10.669422240188336 19.20496002959117 0 0 0
453 1 4.2677688968100735 10.669422240188306 19.204960029591145 0 0 0
461 1 8.535537789811722 10.669422240188297 19.204960029591156 0 0 0
468 1 12.803306686774155 10.669422240188311 19.20496002959115 0 0 0
476 1 17.071075579943326 10.669422240188325 19.204960029591163 0 0 0
456 1 2.1338844500566587 12.8033066867741 19.204960029591124 0 0 0
457 1 4.088204324168956e-10 14.93719113319002 19.20496002959117 0 0 0
483 1 2.133884450056647 17.071075579943336 19.20496002959114 0 0 0
459 1 4.267768896809958 14.93719113319002 19.204960029591145 0 0 0
463 1 6.4016533432258 12.803306686774155 19.204960029591216 0 0 0
465 1 8.535537789811693 14.937191133189906 19.204960029591156 0 0 0
488 1 6.401653343225858 17.071075579943283 19.20496002959123 0 0 0
470 1 10.669422240188354 12.803306686774143 19.20496002959115 0 0 0
492 1 10.669422240188327 17.07107557994333 19.204960029591163 0 0 0
473 1 14.937191133189954 12.803306686774121 19.20496002959115 0 0 0
474 1 12.803306686774084 14.93719113318999 19.20496002959115 0 0 0
480 1 17.07107557994337 14.937191133190053 19.204960029591163 0 0 0
495 1 14.93719113318991 17.071075579943283 19.204960029591163 0 0 0
479 1 19.204960029591156 12.803306686774027 19.20496002959116 0 0 0
499 1 19.204960029591174 17.071075579943294 19.204960029591174 0 0 0
484 1 4.08816287816567e-10 19.204960029591184 19.20496002959118 0 0 0
486 1 4.2677688968100815 19.20496002959118 19.204960029591156 0 0 0
490 1 8.535537789811707 19.20496002959119 19.20496002959117 0 0 0
496 1 12.803306686774114 19.204960029591245 19.20496002959116 0 0 0
500 1 17.07107557994336 19.204960029591174 19.204960029591174 0 0 0

Velocities

1 0 0 0
2 0 0 0
3 0 0 0
4 0 0 0
5 0 0 0
6 0 0 0
15 0 0 0
16 0 0 0
17 0 0 0
18 0 0 0
24 0 0 0
25 0 0 0
26 0 0 0
27 0 0 0
28 0 0 0
29 0 0 0
37 0 0 0
40 0 0 0
38 0 0 0
39 0 0 0
7 0 0 0
8 0 0 0
46 0 0 0
47 0 0 0
49 0 0 0
50 0 0 0
9 0 0 0
19 0 0 0
20 0 0 0
48 0 0 0
51 0 0 0
55 0 0 0
56 0 0 0
57 0 0 0
58 0 0 0
30 0 0 0
61 0 0 0
64 0 0 0
31 0 0 0
32 0 0 0
41 0 0 0
62 0 0 0
63 0 0 0
65 0 0 0
66 0 0 0
71 0 0 0
72 0 0 0
42 0 0 0
70 0 0 0
73 0 0 0
76 0 0 0
77 0 0 0
78 0 0 0
89 0 0 0
90 0 0 0
98 0 0 0
99 0 0 0
100 0 0 0
113 0 0 0
112 0 0 0
79 0 0 0
80 0 0 0
81 0 0 0
82 0 0 0
121 0 0 0
123 0 0 0
83 0 0 0
84 0 0 0
91 0 0 0
92 0 0 0
93 0 0 0
94 0 0 0
125 0 0 0
131 0 0 0
132 0 0 0
101 0 0 0
102 0 0 0
137 0 0 0
103 0 0 0
104 0 0 0
105 0 0 0
106 0 0 0
114 0 0 0
117 0 0 0
138 0 0 0
140 0 0 0
145 0 0 0
115 0 0 0
116 0 0 0
147 0 0 0
122 0 0 0
124 0 0 0
126 0 0 0
130 0 0 0
133 0 0 0
136 0 0 0
139 0 0 0
141 0 0 0
148 0 0 0
146 0 0 0
10 0 0 0
11 0 0 0
151 0 0 0
152 0 0 0
155 0 0 0
156 0 0 0
12 0 0 0
21 0 0 0
22 0 0 0
153 0 0 0
157 0 0 0
160 0 0 0
161 0 0 0
163 0 0 0
164 0 0 0
33 0 0 0
166 0 0 0
171 0 0 0
34 0 0 0
35 0 0 0
43 0 0 0
167 0 0 0
168 0 0 0
172 0 0 0
173 0 0 0
176 0 0 0
178 0 0 0
44 0 0 0
175 0 0 0
179 0 0 0
13 0 0 0
52 0 0 0
53 0 0 0
154 0 0 0
158 0 0 0
181 0 0 0
183 0 0 0
184 0 0 0
185 0 0 0
14 0 0 0
23 0 0 0
54 0 0 0
59 0 0 0
60 0 0 0
159 0 0 0
162 0 0 0
165 0 0 0
182 0 0 0
186 0 0 0
187 0 0 0
188 0 0 0
189 0 0 0
190 0 0 0
67 0 0 0
169 0 0 0
192 0 0 0
194 0 0 0
36 0 0 0
45 0 0 0
68 0 0 0
69 0 0 0
75 0 0 0
170 0 0 0
174 0 0 0
180 0 0 0
191 0 0 0
193 0 0 0
195 0 0 0
196 0 0 0
197 0 0 0
200 0 0 0
74 0 0 0
177 0 0 0
198 0 0 0
199 0 0 0
85 0 0 0
201 0 0 0
206 0 0 0
95 0 0 0
202 0 0 0
210 0 0 0
213 0 0 0
107 0 0 0
220 0 0 0
108 0 0 0
216 0 0 0
221 0 0 0
225 0 0 0
118 0 0 0
228 0 0 0
86 0 0 0
87 0 0 0
127 0 0 0
203 0 0 0
204 0 0 0
207 0 0 0
208 0 0 0
231 0 0 0
234 0 0 0
88 0 0 0
96 0 0 0
97 0 0 0
129 0 0 0
135 0 0 0
205 0 0 0
209 0 0 0
211 0 0 0
212 0 0 0
214 0 0 0
215 0 0 0
236 0 0 0
237 0 0 0
240 0 0 0
109 0 0 0
217 0 0 0
222 0 0 0
241 0 0 0
110 0 0 0
111 0 0 0
119 0 0 0
143 0 0 0
149 0 0 0
218 0 0 0
219 0 0 0
223 0 0 0
224 0 0 0
227 0 0 0
229 0 0 0
242 0 0 0
245 0 0 0
249 0 0 0
120 0 0 0
226 0 0 0
230 0 0 0
247 0 0 0
128 0 0 0
232 0 0 0
235 0 0 0
134 0 0 0
233 0 0 0
238 0 0 0
239 0 0 0
142 0 0 0
244 0 0 0
144 0 0 0
243 0 0 0
246 0 0 0
248 0 0 0
150 0 0 0
250 0 0 0
251 0 0 0
252 0 0 0
253 0 0 0
264 0 0 0
265 0 0 0
273 0 0 0
274 0 0 0
275 0 0 0
288 0 0 0
287 0 0 0
254 0 0 0
296 0 0 0
298 0 0 0
266 0 0 0
297 0 0 0
305 0 0 0
306 0 0 0
276 0 0 0
312 0 0 0
277 0 0 0
311 0 0 0
313 0 0 0
320 0 0 0
289 0 0 0
321 0 0 0
326 0 0 0
327 0 0 0
340 0 0 0
349 0 0 0
362 0 0 0
328 0 0 0
329 0 0 0
371 0 0 0
330 0 0 0
341 0 0 0
342 0 0 0
380 0 0 0
350 0 0 0
386 0 0 0
351 0 0 0
352 0 0 0
364 0 0 0
387 0 0 0
363 0 0 0
395 0 0 0
372 0 0 0
373 0 0 0
381 0 0 0
388 0 0 0
396 0 0 0
255 0 0 0
256 0 0 0
257 0 0 0
258 0 0 0
401 0 0 0
402 0 0 0
259 0 0 0
260 0 0 0
267 0 0 0
268 0 0 0
269 0 0 0
270 0 0 0
405 0 0 0
410 0 0 0
412 0 0 0
278 0 0 0
279 0 0 0
416 0 0 0
280 0 0 0
281 0 0 0
282 0 0 0
283 0 0 0
290 0 0 0
293 0 0 0
418 0 0 0
419 0 0 0
425 0 0 0
291 0 0 0
292 0 0 0
426 0 0 0
261 0 0 0
262 0 0 0
299 0 0 0
300 0 0 0
302 0 0 0
303 0 0 0
407 0 0 0
431 0 0 0
434 0 0 0
263 0 0 0
271 0 0 0
272 0 0 0
301 0 0 0
304 0 0 0
307 0 0 0
308 0 0 0
309 0 0 0
310 0 0 0
409 0 0 0
415 0 0 0
436 0 0 0
437 0 0 0
440 0 0 0
284 0 0 0
314 0 0 0
317 0 0 0
441 0 0 0
285 0 0 0
286 0 0 0
294 0 0 0
315 0 0 0
316 0 0 0
318 0 0 0
319 0 0 0
323 0 0 0
324 0 0 0
423 0 0 0
429 0 0 0
442 0 0 0
445 0 0 0
449 0 0 0
295 0 0 0
322 0 0 0
325 0 0 0
447 0 0 0
331 0 0 0
332 0 0 0
451 0 0 0
333 0 0 0
343 0 0 0
344 0 0 0
460 0 0 0
353 0 0 0
466 0 0 0
354 0 0 0
355 0 0 0
366 0 0 0
467 0 0 0
365 0 0 0
475 0 0 0
334 0 0 0
335 0 0 0
336 0 0 0
337 0 0 0
374 0 0 0
376 0 0 0
454 0 0 0
455 0 0 0
481 0 0 0
338 0 0 0
339 0 0 0
345 0 0 0
346 0 0 0
347 0 0 0
348 0 0 0
378 0 0 0
383 0 0 0
384 0 0 0
458 0 0 0
462 0 0 0
464 0 0 0
485 0 0 0
489 0 0 0
356 0 0 0
357 0 0 0
390 0 0 0
469 0 0 0
358 0 0 0
359 0 0 0
360 0 0 0
361 0 0 0
367 0 0 0
370 0 0 0
391 0 0 0
393 0 0 0
397 0 0 0
471 0 0 0
472 0 0 0
477 0 0 0
493 0 0 0
497 0 0 0
368 0 0 0
369 0 0 0
399 0 0 0
478 0 0 0
375 0 0 0
377 0 0 0
482 0 0 0
379 0 0 0
382 0 0 0
385 0 0 0
487 0 0 0
389 0 0 0
491 0 0 0
392 0 0 0
394 0 0 0
400 0 0 0
494 0 0 0
398 0 0 0
498 0 0 0
403 0 0 0
404 0 0 0
406 0 0 0
411 0 0 0
413 0 0 0
417 0 0 0
420 0 0 0
421 0 0 0
428 0 0 0
427 0 0 0
408 0 0 0
432 0 0 0
435 0 0 0
414 0 0 0
433 0 0 0
438 0 0 0
439 0 0 0
422 0 0 0
444 0 0 0
424 0 0 0
443 0 0 0
446 0 0 0
448 0 0 0
430 0 0 0
450 0 0 0
452 0 0 0
453 0 0 0
461 0 0 0
468 0 0 0
476 0 0 0
456 0 0 0
457 0 0 0
483 0 0 0
459 0 0 0
463 0 0 0
465 0 0 0
488 0 0 0
470 0 0 0
492 0 0 0
473 0 0 0
474 0 0 0
480 0 0 0
495 0 0 0
479 0 0 0
499 0 0 0
484 0 0 0
486 0 0 0
490 0 0 0
496 0 0 0
500 0 0 0
